Version identifier: 22.1.1.0 | 2022-11-28 | 9160aff4d
CPXPARAM_TimeLimit                               3600
Tried aggregator 1 time.
MIP Presolve eliminated 269 rows and 220 columns.
Reduced MIP has 4631 rows, 2377 columns, and 13793 nonzeros.
Reduced MIP has 2377 binaries, 0 generals, 0 SOSs, and 0 indicators.
Presolve time = 0.01 sec. (11.46 ticks)
Found incumbent of value 3500558.000000 after 0.01 sec. (13.83 ticks)
Probing time = 0.00 sec. (3.38 ticks)
Tried aggregator 1 time.
Detecting symmetries...
Reduced MIP has 4631 rows, 2377 columns, and 13793 nonzeros.
Reduced MIP has 2377 binaries, 0 generals, 0 SOSs, and 0 indicators.
Presolve time = 0.01 sec. (12.21 ticks)
Probing time = 0.01 sec. (3.38 ticks)
Clique table members: 2281.
MIP emphasis: balance optimality and feasibility.
MIP search method: dynamic search.
Parallel mode: deterministic, using up to 8 threads.
Root relaxation solution time = 0.01 sec. (6.79 ticks)

        Nodes                                         Cuts/
   Node  Left     Objective  IInf  Best Integer    Best Bound    ItCnt     Gap

*     0+    0                      3500558.0000        0.0000           100.00%
*     0+    0                      1905508.0000        0.0000           100.00%
*     0+    0                      1138313.0000        0.0000           100.00%
*     0+    0                       677477.0000        0.0000           100.00%
      0     0    93774.0000   100   677477.0000    93774.0000      146   86.16%
      0     0   106217.5000   100   677477.0000     Cuts: 113      258   84.32%
*     0+    0                       145396.0000   106217.5000            26.95%
*     0+    0                       138091.0000   106217.5000            23.08%
      0     0   117163.0000    70   138091.0000     Cuts: 119      384   15.16%
Detecting symmetries...

Repeating presolve.
Tried aggregator 1 time.
MIP Presolve eliminated 4025 rows and 1831 columns.
MIP Presolve modified 346 coefficients.
Reduced MIP has 606 rows, 546 columns, and 2071 nonzeros.
Reduced MIP has 546 binaries, 0 generals, 0 SOSs, and 0 indicators.
Presolve time = 0.00 sec. (4.03 ticks)
Probing time = 0.00 sec. (0.50 ticks)
Tried aggregator 1 time.
Detecting symmetries...
Reduced MIP has 606 rows, 546 columns, and 2071 nonzeros.
Reduced MIP has 546 binaries, 0 generals, 0 SOSs, and 0 indicators.
Presolve time = 0.00 sec. (2.09 ticks)
Represolve time = 0.01 sec. (10.09 ticks)
Probing time = 0.00 sec. (0.50 ticks)
Clique table members: 526.
MIP emphasis: balance optimality and feasibility.
MIP search method: dynamic search.
Parallel mode: deterministic, using up to 8 threads.
Root relaxation solution time = 0.00 sec. (3.77 ticks)

        Nodes                                         Cuts/
   Node  Left     Objective  IInf  Best Integer    Best Bound    ItCnt     Gap

*     0+    0                       138091.0000   117163.0000            15.16%
      0     0   127663.0000    68   138091.0000   127663.0000      556    7.55%
      0     0   130368.1667   130   138091.0000      Cuts: 13      662    5.59%
      0     0   131326.0000    83   138091.0000      Cuts: 52      720    4.90%
      0     0   131388.2500   135   138091.0000  ZeroHalf: 14      743    4.85%
      0     0   131818.6667    72   138091.0000  ZeroHalf: 27      770    4.54%
      0     0   132329.0000    63   138091.0000  ZeroHalf: 17      793    4.17%
Detecting symmetries...
      0     0   132443.0909   125   138091.0000  ZeroHalf: 10      810    4.09%
      0     0   132736.3750   132   138091.0000  ZeroHalf: 18      838    3.88%
      0     0   132999.4167   138   138091.0000  ZeroHalf: 16      884    3.69%
      0     0   133206.0000    61   138091.0000      Cuts: 12      904    3.54%
      0     0   133248.2111   140   138091.0000   ZeroHalf: 5      916    3.51%
      0     0   133405.9608   154   138091.0000  ZeroHalf: 18      948    3.39%
*     0+    0                       137562.0000   133405.9608             3.02%
      0     0        cutoff         137562.0000   137562.0000      948    0.00%
Elapsed time = 0.24 sec. (187.88 ticks, tree = 0.01 MB, solutions = 7)

Implied bound cuts applied:  51
Zero-half cuts applied:  28
Lift and project cuts applied:  1

Root node processing (before b&c):
  Real time             =    0.24 sec. (188.06 ticks)
Parallel b&c, 8 threads:
  Real time             =    0.00 sec. (0.00 ticks)
  Sync time (average)   =    0.00 sec.
  Wait time (average)   =    0.00 sec.
                          ------------
Total (root+branch&cut) =    0.24 sec. (188.06 ticks)
Status: Optimal
Obj: 137562

Instalacoes abertas:
Instalação 4 aberta
Instalação 9 aberta
Instalação 20 aberta
Instalação 22 aberta

Atribuições (cliente -> instalação):
Cliente 0 -> Instalação 9
Cliente 1 -> Instalação 9
Cliente 2 -> Instalação 4
Cliente 3 -> Instalação 20
Cliente 4 -> Instalação 4
Cliente 5 -> Instalação 20
Cliente 6 -> Instalação 20
Cliente 7 -> Instalação 20
Cliente 8 -> Instalação 4
Cliente 9 -> Instalação 9
Cliente 10 -> Instalação 20
Cliente 11 -> Instalação 20
Cliente 12 -> Instalação 20
Cliente 13 -> Instalação 9
Cliente 14 -> Instalação 9
Cliente 15 -> Instalação 9
Cliente 16 -> Instalação 9
Cliente 17 -> Instalação 20
Cliente 18 -> Instalação 20
Cliente 19 -> Instalação 9
Cliente 20 -> Instalação 20
Cliente 21 -> Instalação 9
Cliente 22 -> Instalação 22
Cliente 23 -> Instalação 9
Cliente 24 -> Instalação 20
Cliente 25 -> Instalação 9
Cliente 26 -> Instalação 9
Cliente 27 -> Instalação 20
Cliente 28 -> Instalação 9
Cliente 29 -> Instalação 9
Cliente 30 -> Instalação 9
Cliente 31 -> Instalação 9
Cliente 32 -> Instalação 20
Cliente 33 -> Instalação 9
Cliente 34 -> Instalação 9
Cliente 35 -> Instalação 4
Cliente 36 -> Instalação 20
Cliente 37 -> Instalação 20
Cliente 38 -> Instalação 4
Cliente 39 -> Instalação 9
Cliente 40 -> Instalação 20
Cliente 41 -> Instalação 4
Cliente 42 -> Instalação 9
Cliente 43 -> Instalação 4
Cliente 44 -> Instalação 9
Cliente 45 -> Instalação 4
Cliente 46 -> Instalação 4
Cliente 47 -> Instalação 4
Cliente 48 -> Instalação 20
Cliente 49 -> Instalação 9
